c SAT Generator for power-law distributed variable frequencies
c -g u -v 20 -c 91 -k 3 -p 2.750000 -b 3.200000 -f /home/schmidt/Devel/ni-kop-sat/data/ensemble/ruf20-91/ruf20-91-322 -u 1 -U 1 -s 268647421
p cnf 20 91
3 -5 -10 0
5 13 19 0
3 11 12 0
4 8 -20 0
2 9 -18 0
-4 6 19 0
-6 7 -17 0
-4 7 -12 0
5 11 17 0
4 -7 -8 0
6 13 -20 0
-17 -18 -20 0
-5 15 19 0
-4 9 14 0
7 -11 12 0
-8 9 -19 0
8 -11 -12 0
1 12 -20 0
-7 -10 20 0
-5 6 19 0
-9 -13 -14 0
2 -6 8 0
-2 -7 15 0
-1 -3 6 0
-5 -14 15 0
-4 -10 14 0
-1 -11 -16 0
15 -18 -20 0
-8 9 -20 0
8 10 16 0
2 -8 -20 0
8 -13 15 0
4 -10 20 0
10 -13 -18 0
-1 4 -5 0
3 -4 -12 0
9 -16 19 0
-5 -9 17 0
-2 -10 -16 0
-2 -5 -20 0
-3 -15 18 0
-5 -8 10 0
-2 5 -13 0
-4 -11 -18 0
-11 -17 -20 0
-9 -10 -11 0
-6 -9 -14 0
11 15 17 0
8 9 -12 0
1 -7 -9 0
9 -15 -20 0
-2 -6 -12 0
2 -8 -10 0
5 -7 -10 0
1 7 -17 0
-2 -12 13 0
2 6 -15 0
-12 -18 20 0
8 -10 -16 0
4 7 -19 0
7 -12 18 0
-2 -3 -5 0
-6 -10 17 0
7 -13 16 0
8 -11 -15 0
13 17 19 0
-3 -13 19 0
-2 -5 -13 0
6 15 16 0
-6 7 14 0
9 -10 -11 0
1 2 8 0
-6 7 -10 0
-2 -5 -7 0
1 -7 15 0
4 -6 -10 0
-7 -15 -19 0
3 4 7 0
-3 -7 11 0
-6 15 -16 0
-7 -12 -15 0
-13 -17 19 0
3 -9 12 0
4 5 15 0
10 -12 16 0
2 6 12 0
2 -15 16 0
5 12 17 0
6 7 9 0
-8 -12 19 0
-4 -13 14 0
